param n := 32;
param c := 100;
param w := 
1 95
2 91
3 88
4 80
5 76
6 75
7 71
8 65
9 62
10 61
11 60
12 58
13 57
14 55
15 48
16 47
17 42
18 41
19 37
20 35
21 34
22 31
23 30
24 29
25 23
26 19
27 16
28 5
29 2
30 2
31 1
32 1
;